102
38
84
422
424
431
437
439
443
450
490
598
653
654
664
733
735
739
766
991
1013
1041
1133
1265
1267
1275
1300
1301
1310
1361
1418
1555
1558
1586
1587
1589
1593
1602
1607
1644
1645
1737
1738
1739
1823
1886
1998
2013
2032
2034
2050
2057
2058
2060
2066
2248
2315
2316
2433
2436
2437
2545
2604
2697
2871
2873
2881
2886
2898
2900
2960
3033
3040
3258
3260
3316
3434
3437
3551
3567
3590
3592
3625
3626
3673
3762
3775
3776
3789
3791
3810
3811
3878
3956
3959
3987
3989
3995
4181
4183
4184
4351
4355